7
665308,6126823-729376,6171380-722462,6177770-723050,6178505-724312,6179850-726755,6174369-677908,6150220-557926,6181752-550967,6189326
-677908,6150220
719162,6180836-720415,6176264-719104,6173159-714197,6169877-710831,6168718-677908,6150220-528913,6152557-468578,6147060-465029,6147733-460950,6153723-466076,6153323
-677908,6150220-588257,6139249-527858,6099834-524269,6122271-585053,6140355
712256,6183711-714000,6175858-711357,6175122-677908,6150220-609023,6077163-538181,6086484-522714,6075103
713038,6174563-711815,6208837-720134,6210199-718638,6205725-662179,6199594-677908,6150220-569239,6227022-526981,6257531-500074,6269745-507721,6199180
680041,6165335-677908,6150220-604134,6229591-559318,6372820
